solution status: time limit reached
objective value:                                  248
shell_i_$_38__6                                     1 	(obj:0)
shell_j_$_63__6                                     1 	(obj:0)
shell_i_$_39                                        1 	(obj:0)
shell_j_$_287                                       1 	(obj:0)
shell_j_$_140                                       1 	(obj:0)
shell_j_$_32__6                                     1 	(obj:0)
shell_j_$_52__6                                     1 	(obj:0)
shell_j_$_53__6                                     1 	(obj:0)
shell_j_$_172__6                                    1 	(obj:0)
shell_j_$_162__6                                    1 	(obj:0)
shell_j_$_183__6                                    1 	(obj:0)
shell_j_$_202__6                                    1 	(obj:0)
shell_j_$_90                                        1 	(obj:0)
shell_j_$_214__6                                    1 	(obj:0)
shell_j_$_65                                        1 	(obj:0)
shell_j_$_273                                       1 	(obj:0)
shell_j_$_55__6                                     1 	(obj:0)
shell_j_$_265__6                                    1 	(obj:0)
shell_j_$_205__6                                    1 	(obj:0)
shell_i_$_40                                        1 	(obj:0)
shell_i_$_182                                       1 	(obj:0)
shell_j_$_62                                        1 	(obj:0)
shell_j_$_249                                       1 	(obj:0)
shell_j_$_56                                        1 	(obj:0)
shell_i_$_105                                       1 	(obj:0)
shell_j_$_282                                       1 	(obj:0)
shell_j_$_206__6                                    1 	(obj:0)
shell_j_$_165__6                                    1 	(obj:0)
shell_j_$_238__6                                    1 	(obj:0)
shell_j_$_224__6                                    1 	(obj:0)
shell_i_$_141                                       1 	(obj:0)
shell_j_$_156__6                                    1 	(obj:0)
shell_i_$_177                                       1 	(obj:0)
shell_j_$_236__6                                    1 	(obj:0)
shell_j_$_168                                       1 	(obj:0)
shell_j_$_251                                       1 	(obj:0)
shell_j_$_259                                       1 	(obj:0)
shell_j_$_260                                       1 	(obj:0)
shell_j_$_30__6                                     1 	(obj:0)
shell_j_$_240__6                                    1 	(obj:0)
shell_j_$_244__6                                    1 	(obj:0)
shell_j_$_203__6                                    1 	(obj:0)
shell_i_$_34                                        1 	(obj:0)
shell_j_$_170__6                                    1 	(obj:0)
shell_j_$_197__6                                    1 	(obj:0)
shell_i_$_178                                       1 	(obj:0)
shell_i_$_150                                       1 	(obj:0)
shell_j_$_250                                       1 	(obj:0)
shell_j_$_245__6                                    1 	(obj:0)
shell_j_$_93                                        1 	(obj:0)
shell_i_$_264                                       1 	(obj:0)
shell_j_$_232                                       1 	(obj:0)
shell_j_$_59                                        1 	(obj:0)
shell_j_$_37                                        1 	(obj:0)
shell_j_$_148                                       1 	(obj:0)
shell_j_$_31__6                                     1 	(obj:0)
shell_j_$_41__6                                     1 	(obj:0)
shell_j_$_243__6                                    1 	(obj:0)
shell_j_$_254__6                                    1 	(obj:0)
shell_i_$_211__6                                    1 	(obj:0)
shell_i_$_185                                       1 	(obj:0)
shell_j_$_204__6                                    1 	(obj:0)
shell_j_$_210                                       1 	(obj:0)
shell_j_$_208                                       1 	(obj:0)
shell_i_$_209                                       1 	(obj:0)
shell_j_$_161__6                                    1 	(obj:0)
shell_j_$_64__6                                     1 	(obj:0)
shell_j_$_169                                       1 	(obj:0)
shell_j_$_271                                       1 	(obj:0)
shell_j_$_195__6                                    1 	(obj:0)
shell_j_$_106                                       1 	(obj:0)
shell_j_$_189                                       1 	(obj:0)
shell_j_$_252__6                                    1 	(obj:0)
shell_j_$_255__6                                    1 	(obj:0)
shell_j_$_154__6                                    1 	(obj:0)
shell_j_$_91                                        1 	(obj:0)
shell_j_$_285                                       1 	(obj:0)
shell_j_$_33__6                                     1 	(obj:0)
shell_j_$_199__6                                    1 	(obj:0)
shell_j_$_60__6                                     1 	(obj:0)
shell_j_$_92                                        1 	(obj:0)
shell_j_$_173__6                                    1 	(obj:0)
shell_j_$_268                                       1 	(obj:0)
shell_j_$_54__6                                     1 	(obj:0)
shell_j_$_191                                       1 	(obj:0)
shell_j_$_163__6                                    1 	(obj:0)
shell_j_$_164__6                                    1 	(obj:0)
shell_j_$_61                                        1 	(obj:0)
shell_j_$_167                                       1 	(obj:0)
shell_i_$_107                                       1 	(obj:0)
shell_i_$_218                                       1 	(obj:0)
shell_i_$_158__6                                    1 	(obj:0)
shell_j_$_267                                       1 	(obj:0)
shell_j_$_227                                       1 	(obj:0)
shell_i_$_186                                       1 	(obj:0)
shell_i_$_226                                       1 	(obj:0)
shell_j_$_230                                       1 	(obj:0)
shell_j_$_43                                        1 	(obj:0)
shell_j_$_246__6                                    1 	(obj:0)
shell_i_$_213__6                                    1 	(obj:0)
shell_j_$_42__6                                     1 	(obj:0)
shell_i_$_223                                       1 	(obj:0)
shell_i_$_219                                       1 	(obj:0)
shell_j_$_104                                       1 	(obj:0)
shell_j_$_247__6                                    1 	(obj:0)
$_34_x                                              8 	(obj:0)
$_34_y                                             -2 	(obj:0)
$_39_z                                             -9 	(obj:0)
$_265__6_x                                          7 	(obj:0)
$_170__6_x                                          3 	(obj:0)
$_170__6_y                                         -8 	(obj:0)
$_170__6_z                                         -4 	(obj:0)
$_265__6_y                                         -8 	(obj:0)
$_265__6_z                                        -18 	(obj:0)
$_197__6_x                                         -1 	(obj:0)
$_197__6_y                                         -8 	(obj:0)
$_38__6_y                                          -3 	(obj:0)
$_53__6_x                                           8 	(obj:0)
$_178_x                                             8 	(obj:0)
$_178_y                                            -3 	(obj:0)
$_178_z                                            -8 	(obj:0)
$_205__6_y                                         -8 	(obj:0)
$_150_x                                             8 	(obj:0)
$_150_y                                            -6 	(obj:0)
$_150_z                                           -17 	(obj:0)
$_53__6_y                                          -8 	(obj:0)
$_250_x                                             6 	(obj:0)
$_250_y                                            -8 	(obj:0)
$_250_z                                             4 	(obj:0)
$_53__6_z                                           5 	(obj:0)
$_40_x                                              8 	(obj:0)
$_245__6_x                                          7 	(obj:0)
$_245__6_y                                         -8 	(obj:0)
$_245__6_z                                         10 	(obj:0)
$_40_y                                             -3 	(obj:0)
$_40_z                                            -11 	(obj:0)
$_93_x                                              7 	(obj:0)
$_93_y                                             -8 	(obj:0)
$_93_z                                              3 	(obj:0)
$_63__6_x                                           8 	(obj:0)
$_287_x                                             4 	(obj:0)
$_264_x                                             8 	(obj:0)
$_264_y                                            -6 	(obj:0)
$_264_z                                            -8 	(obj:0)
$_182_x                                             8 	(obj:0)
$_182_y                                            -3 	(obj:0)
$_232_x                                             8 	(obj:0)
$_232_y                                            -8 	(obj:0)
$_232_z                                           -16 	(obj:0)
$_182_z                                            -9 	(obj:0)
$_172__6_x                                          5 	(obj:0)
$_59_x                                              5 	(obj:0)
$_59_y                                             -8 	(obj:0)
$_59_z                                             -2 	(obj:0)
$_172__6_y                                         -8 	(obj:0)
$_62_x                                              6 	(obj:0)
$_37_x                                              6 	(obj:0)
$_37_y                                             -8 	(obj:0)
$_37_z                                             -4 	(obj:0)
$_62_y                                             -8 	(obj:0)
$_62_z                                             -6 	(obj:0)
$_148_x                                             6 	(obj:0)
$_148_y                                            -8 	(obj:0)
$_148_z                                            -1 	(obj:0)
$_172__6_z                                         -4 	(obj:0)
$_287_y                                            -8 	(obj:0)
$_31__6_x                                           7 	(obj:0)
$_31__6_y                                          -8 	(obj:0)
$_31__6_z                                          -1 	(obj:0)
$_249_x                                             7 	(obj:0)
$_249_y                                            -8 	(obj:0)
$_41__6_x                                           8 	(obj:0)
$_41__6_y                                          -8 	(obj:0)
$_41__6_z                                          -7 	(obj:0)
$_249_z                                             4 	(obj:0)
$_287_z                                            -4 	(obj:0)
$_243__6_x                                          3 	(obj:0)
$_243__6_y                                         -8 	(obj:0)
$_243__6_z                                         -8 	(obj:0)
$_162__6_x                                          8 	(obj:0)
$_56_x                                              7 	(obj:0)
$_254__6_x                                          1 	(obj:0)
$_254__6_y                                         -8 	(obj:0)
$_56_y                                             -8 	(obj:0)
$_56_z                                              7 	(obj:0)
$_211__6_x                                          8 	(obj:0)
$_211__6_y                                         -6 	(obj:0)
$_211__6_z                                         -4 	(obj:0)
$_162__6_y                                         -8 	(obj:0)
$_162__6_z                                        -22 	(obj:0)
$_185_x                                             8 	(obj:0)
$_185_y                                            -4 	(obj:0)
$_185_z                                           -10 	(obj:0)
$_105_x                                             8 	(obj:0)
$_105_y                                            -2 	(obj:0)
$_204__6_x                                          8 	(obj:0)
$_204__6_y                                         -8 	(obj:0)
$_204__6_z                                          4 	(obj:0)
$_105_z                                            -9 	(obj:0)
$_63__6_y                                          -8 	(obj:0)
$_210_x                                             6 	(obj:0)
$_210_y                                            -8 	(obj:0)
$_210_z                                            -2 	(obj:0)
$_63__6_z                                         -11 	(obj:0)
$_282_x                                             3 	(obj:0)
$_208_x                                             6 	(obj:0)
$_208_y                                            -8 	(obj:0)
$_208_z                                             2 	(obj:0)
$_282_y                                            -8 	(obj:0)
$_282_z                                             1 	(obj:0)
$_209_x                                             8 	(obj:0)
$_209_y                                            -4 	(obj:0)
$_183__6_x                                          8 	(obj:0)
$_183__6_y                                         -8 	(obj:0)
$_161__6_x                                          7 	(obj:0)
$_161__6_y                                         -8 	(obj:0)
$_161__6_z                                         -9 	(obj:0)
$_206__6_x                                          5 	(obj:0)
$_206__6_y                                         -8 	(obj:0)
$_64__6_x                                           4 	(obj:0)
$_64__6_y                                          -8 	(obj:0)
$_64__6_z                                          -8 	(obj:0)
$_206__6_z                                          4 	(obj:0)
$_183__6_z                                        -20 	(obj:0)
$_169_x                                             8 	(obj:0)
$_169_y                                            -8 	(obj:0)
$_169_z                                            -1 	(obj:0)
$_140_x                                             8 	(obj:0)
$_165__6_x                                          2 	(obj:0)
$_271_x                                             4 	(obj:0)
$_271_y                                            -8 	(obj:0)
$_271_z                                             1 	(obj:0)
$_165__6_y                                         -8 	(obj:0)
$_195__6_x                                          8 	(obj:0)
$_195__6_y                                         -8 	(obj:0)
$_195__6_z                                        -21 	(obj:0)
$_140_y                                            -8 	(obj:0)
$_202__6_x                                          5 	(obj:0)
$_106_x                                             5 	(obj:0)
$_106_y                                            -8 	(obj:0)
$_106_z                                            -8 	(obj:0)
$_238__6_x                                          3 	(obj:0)
$_238__6_y                                         -8 	(obj:0)
$_189_x                                             7 	(obj:0)
$_189_y                                            -8 	(obj:0)
$_189_z                                            -2 	(obj:0)
$_202__6_y                                         -8 	(obj:0)
$_252__6_x                                          7 	(obj:0)
$_252__6_y                                         -8 	(obj:0)
$_252__6_z                                         -4 	(obj:0)
$_202__6_z                                        -10 	(obj:0)
$_224__6_x                                          6 	(obj:0)
$_255__6_x                                          6 	(obj:0)
$_255__6_y                                         -8 	(obj:0)
$_255__6_z                                         -8 	(obj:0)
$_224__6_y                                         -8 	(obj:0)
$_224__6_z                                        -19 	(obj:0)
$_154__6_x                                          6 	(obj:0)
$_154__6_y                                         -8 	(obj:0)
$_154__6_z                                        -17 	(obj:0)
$_140_z                                            -3 	(obj:0)
$_38__6_z                                          -4 	(obj:0)
$_91_x                                              8 	(obj:0)
$_91_y                                             -8 	(obj:0)
$_91_z                                              3 	(obj:0)
$_141_x                                             8 	(obj:0)
$_141_y                                            -2 	(obj:0)
$_285_x                                             8 	(obj:0)
$_285_y                                            -8 	(obj:0)
$_285_z                                            -2 	(obj:0)
$_141_z                                            -4 	(obj:0)
$_90_x                                              5 	(obj:0)
$_33__6_x                                           8 	(obj:0)
$_33__6_y                                          -8 	(obj:0)
$_33__6_z                                           9 	(obj:0)
$_90_y                                             -8 	(obj:0)
$_156__6_x                                          8 	(obj:0)
$_199__6_x                                          8 	(obj:0)
$_199__6_y                                         -8 	(obj:0)
$_199__6_z                                        -13 	(obj:0)
$_156__6_y                                         -8 	(obj:0)
$_156__6_z                                          6 	(obj:0)
$_60__6_x                                           7 	(obj:0)
$_60__6_y                                          -8 	(obj:0)
$_60__6_z                                           2 	(obj:0)
$_90_z                                              1 	(obj:0)
$_38__6_x                                           8 	(obj:0)
$_92_x                                              6 	(obj:0)
$_92_y                                             -8 	(obj:0)
$_92_z                                              1 	(obj:0)
$_177_x                                             8 	(obj:0)
$_177_y                                            -2 	(obj:0)
$_173__6_x                                          6 	(obj:0)
$_173__6_y                                         -8 	(obj:0)
$_173__6_z                                        -10 	(obj:0)
$_177_z                                            -7 	(obj:0)
$_32__6_x                                           8 	(obj:0)
$_268_x                                             6 	(obj:0)
$_268_y                                            -8 	(obj:0)
$_268_z                                           -12 	(obj:0)
$_214__6_x                                          7 	(obj:0)
$_236__6_x                                          7 	(obj:0)
$_54__6_x                                           7 	(obj:0)
$_54__6_y                                          -8 	(obj:0)
$_54__6_z                                           5 	(obj:0)
$_236__6_y                                         -8 	(obj:0)
$_236__6_z                                        -17 	(obj:0)
$_191_x                                             8 	(obj:0)
$_191_y                                            -8 	(obj:0)
$_191_z                                           -17 	(obj:0)
$_214__6_y                                         -8 	(obj:0)
$_214__6_z                                        -10 	(obj:0)
$_163__6_x                                          8 	(obj:0)
$_163__6_y                                         -8 	(obj:0)
$_163__6_z                                          8 	(obj:0)
$_168_x                                             4 	(obj:0)
$_168_y                                            -8 	(obj:0)
$_164__6_x                                          5 	(obj:0)
$_164__6_y                                         -8 	(obj:0)
$_32__6_y                                          -8 	(obj:0)
$_61_x                                              8 	(obj:0)
$_61_y                                             -8 	(obj:0)
$_61_z                                             -5 	(obj:0)
$_32__6_z                                           2 	(obj:0)
$_251_x                                             6 	(obj:0)
$_167_x                                             7 	(obj:0)
$_167_y                                            -8 	(obj:0)
$_251_y                                            -8 	(obj:0)
$_107_x                                             8 	(obj:0)
$_107_y                                            -6 	(obj:0)
$_107_z                                           -13 	(obj:0)
$_65_x                                              7 	(obj:0)
$_65_y                                             -8 	(obj:0)
$_218_x                                             8 	(obj:0)
$_218_y                                            -4 	(obj:0)
$_218_z                                            -8 	(obj:0)
$_259_x                                             7 	(obj:0)
$_259_y                                            -8 	(obj:0)
$_158__6_x                                          8 	(obj:0)
$_158__6_y                                         -6 	(obj:0)
$_158__6_z                                        -11 	(obj:0)
$_259_z                                            -6 	(obj:0)
$_65_z                                            -12 	(obj:0)
$_267_x                                             7 	(obj:0)
$_267_y                                            -8 	(obj:0)
$_267_z                                            -8 	(obj:0)
$_39_x                                              8 	(obj:0)
$_260_x                                             8 	(obj:0)
$_227_x                                             8 	(obj:0)
$_227_y                                            -8 	(obj:0)
$_227_z                                           -14 	(obj:0)
$_260_y                                            -8 	(obj:0)
$_260_z                                            -6 	(obj:0)
$_186_x                                             8 	(obj:0)
$_186_y                                            -6 	(obj:0)
$_186_z                                           -15 	(obj:0)
$_39_y                                             -6 	(obj:0)
$_273_x                                             8 	(obj:0)
$_226_x                                             8 	(obj:0)
$_226_y                                            -6 	(obj:0)
$_226_z                                           -10 	(obj:0)
$_30__6_x                                           8 	(obj:0)
$_30__6_y                                          -8 	(obj:0)
$_230_x                                             8 	(obj:0)
$_230_y                                            -8 	(obj:0)
$_30__6_z                                         -25 	(obj:0)
$_273_y                                            -8 	(obj:0)
$_43_x                                              7 	(obj:0)
$_43_y                                             -8 	(obj:0)
$_43_z                                            -19 	(obj:0)
$_273_z                                           -12 	(obj:0)
$_240__6_x                                          8 	(obj:0)
$_246__6_x                                          8 	(obj:0)
$_246__6_y                                         -8 	(obj:0)
$_246__6_z                                         10 	(obj:0)
$_240__6_y                                         -8 	(obj:0)
$_240__6_z                                        -10 	(obj:0)
$_213__6_x                                          8 	(obj:0)
$_213__6_y                                         -6 	(obj:0)
$_52__6_x                                           8 	(obj:0)
$_52__6_y                                          -8 	(obj:0)
$_42__6_x                                           8 	(obj:0)
$_42__6_y                                          -8 	(obj:0)
$_42__6_z                                         -18 	(obj:0)
$_244__6_x                                          8 	(obj:0)
$_244__6_y                                         -8 	(obj:0)
$_223_x                                             8 	(obj:0)
$_223_y                                            -5 	(obj:0)
$_223_z                                           -10 	(obj:0)
$_244__6_z                                         -9 	(obj:0)
$_55__6_x                                           8 	(obj:0)
$_219_x                                             8 	(obj:0)
$_219_y                                            -5 	(obj:0)
$_219_z                                            -8 	(obj:0)
$_55__6_y                                          -8 	(obj:0)
$_203__6_x                                          8 	(obj:0)
$_104_x                                             8 	(obj:0)
$_104_y                                            -8 	(obj:0)
$_104_z                                            -4 	(obj:0)
$_203__6_y                                         -8 	(obj:0)
$_203__6_z                                        -19 	(obj:0)
$_247__6_x                                          7 	(obj:0)
$_247__6_y                                         -8 	(obj:0)
$_247__6_z                                          1 	(obj:0)
$_55__6_z                                           1 	(obj:0)
$_52__6_z                                          -8 	(obj:0)
x528                                                7 	(obj:1)
x535                                                2 	(obj:1)
x541                                                1 	(obj:1)
x544                                                1 	(obj:1)
x549                                                7 	(obj:1)
x550                                                3 	(obj:1)
x551                                                5 	(obj:1)
x552                                                7 	(obj:1)
x559                                                1 	(obj:1)
x562                                                3 	(obj:1)
x576                                                2 	(obj:1)
x583                                                7 	(obj:1)
x588                                                1 	(obj:1)
x592                                                2 	(obj:1)
x594                                                1 	(obj:1)
x597                                                2 	(obj:1)
x598                                                1 	(obj:1)
x600                                                1 	(obj:1)
x603                                                3 	(obj:1)
x607                                                4 	(obj:1)
x612                                                4 	(obj:1)
x613                                                4 	(obj:1)
x616                                                4 	(obj:1)
x618                                                1 	(obj:1)
x624                                                3 	(obj:1)
x627                                                6 	(obj:1)
x634                                                3 	(obj:1)
x637                                                3 	(obj:1)
x640                                                2 	(obj:1)
x643                                                1 	(obj:1)
x651                                                2 	(obj:1)
x660                                                6 	(obj:1)
x665                                                2 	(obj:1)
x667                                                5 	(obj:1)
x668                                                6 	(obj:1)
x669                                                6 	(obj:1)
x670                                                4 	(obj:1)
x679                                                1 	(obj:1)
x680                                                2 	(obj:1)
x684                                                2 	(obj:1)
x685                                                2 	(obj:1)
x687                                                2 	(obj:1)
x688                                                1 	(obj:1)
x690                                                1 	(obj:1)
x691                                                1 	(obj:1)
x693                                                3 	(obj:1)
x696                                                2 	(obj:1)
x698                                                1 	(obj:1)
x705                                                2 	(obj:1)
x706                                                1 	(obj:1)
x708                                                1 	(obj:1)
x709                                                2 	(obj:1)
x710                                                6 	(obj:1)
x711                                                2 	(obj:1)
x712                                                2 	(obj:1)
x715                                                1 	(obj:1)
x720                                                4 	(obj:1)
x721                                                5 	(obj:1)
x724                                                4 	(obj:1)
x729                                                2 	(obj:1)
x731                                                1 	(obj:1)
x739                                                1 	(obj:1)
x744                                                2 	(obj:1)
x749                                                4 	(obj:1)
x752                                                2 	(obj:1)
x754                                                1 	(obj:1)
x757                                                4 	(obj:1)
x763                                                4 	(obj:1)
x769                                                2 	(obj:1)
x775                                                1 	(obj:1)
x777                                                3 	(obj:1)
x778                                                1 	(obj:1)
x786                                                2 	(obj:1)
x792                                                5 	(obj:1)
x796                                                1 	(obj:1)
x798                                                3 	(obj:1)
x799                                                1 	(obj:1)
x802                                                2 	(obj:1)
x803                                                1 	(obj:1)
x805                                                1 	(obj:1)
x808                                                1 	(obj:1)
x810                                                2 	(obj:1)
x811                                                1 	(obj:1)
x813                                                5 	(obj:1)
x816                                                1 	(obj:1)
x819                                                1 	(obj:1)
x822                                                2 	(obj:1)
x823                                                3 	(obj:1)
x829                                                1 	(obj:1)
x843                                                1 	(obj:1)
x844                                                1 	(obj:1)
x849                                                2 	(obj:1)
x866                                                1 	(obj:1)
x868                                                1 	(obj:1)
x876                                                2 	(obj:1)
x879                                                6 	(obj:1)
x890                                                2 	(obj:1)
